\ SCIP STATISTICS
\   Problem name     : multi-commodity transportation
\   Variables        : 40 (0 binary, 0 integer, 0 implicit integer, 40 continuous)
\   Constraints      : 18
\   Obj. scale       : 1
\   Obj. offset      : 0
Minimize
 Obj: +12 x(4,3,4) +30 x(1,2,1) +10 x(4,2,2) +18 x(1,3,2) +15 x(3,2,1) +20 x(2,1,4) +20 x(5,1,2) +6 x(4,3,2)
      +18 x(1,2,3) +12 x(5,3,3) +16 x(1,1,4) +9 x(4,3,3) +10 x(2,1,2) +8 x(5,3,2) +40 x(5,1,4) +12 x(2,2,3)
      +8 x(1,1,2) +16 x(4,1,2) +12 x(3,3,3) +8 x(2,2,2) +24 x(5,2,3) +14 x(2,3,2) +8 x(3,3,2) +20 x(2,2,1)
      +16 x(5,2,2) +21 x(2,3,3) +32 x(4,1,4) +25 x(4,2,1) +24 x(3,1,4) +12 x(1,2,2) +6 x(3,2,2) +16 x(5,3,4)
      +16 x(3,3,4) +36 x(1,3,4) +9 x(3,2,3) +28 x(2,3,4) +15 x(4,2,3) +12 x(3,1,2) +27 x(1,3,3) +40 x(5,2,1)
Subject to
 cons: +1 x(1,2,1) = +40
 cons: +1 x(1,2,2) +1 x(1,1,2) +1 x(1,3,2) = +30
 cons: +1 x(1,3,3) +1 x(1,2,3) = +10
 cons: +1 x(2,2,1) = +70
 cons: +1 x(2,2,2) +1 x(2,3,2) +1 x(2,1,2) = +100
 cons: +1 x(2,2,3) +1 x(2,3,3) = +100
 cons: +1 x(3,2,1) = +0
 cons: +1 x(3,3,2) +1 x(3,1,2) +1 x(3,2,2) = +0
 cons: +1 x(3,2,3) +1 x(3,3,3) = +250
 cons: +1 x(4,2,1) = +60
 cons: +1 x(4,2,2) +1 x(4,1,2) +1 x(4,3,2) = +100
 cons: +1 x(4,2,3) +1 x(4,3,3) = +0
 cons: +1 x(5,2,1) = +180
 cons: +1 x(5,3,2) +1 x(5,2,2) +1 x(5,1,2) = +0
 cons: +1 x(5,3,3) +1 x(5,2,3) = +0
 cons: +1 x(2,1,4) +1 x(1,1,2) +1 x(5,1,4) +1 x(3,1,4) +1 x(1,1,4) +1 x(3,1,2) +1 x(5,1,2) +1 x(2,1,2)
  +1 x(4,1,4) +1 x(4,1,2) <= +500
 cons: +1 x(1,2,2) +1 x(1,2,3) +1 x(2,2,1) +1 x(5,2,2) +1 x(2,2,3) +1 x(3,2,3) +1 x(1,2,1) +1 x(4,2,1)
  +1 x(4,2,3) +1 x(4,2,2) +1 x(2,2,2) +1 x(5,2,3) +1 x(5,2,1) +1 x(3,2,1) +1 x(3,2,2) <= +500
 cons: +1 x(5,3,3) +1 x(2,3,3) +1 x(3,3,3) +1 x(1,3,4) +1 x(4,3,4) +1 x(4,3,2) +1 x(2,3,4) +1 x(3,3,4)
  +1 x(1,3,3) +1 x(5,3,4) +1 x(4,3,3) +1 x(1,3,2) +1 x(2,3,2) +1 x(3,3,2) +1 x(5,3,2) <= +500
Bounds
End
